50
16622

322 230
53 481
119 833
447 364
253 768
321 230
561 883
284 588
324 683
273 386
433 664
271 177
191 864
521 405
61 990
406 618
544 318
396 783
418 970
406 24
271 802
441 231
113 470
341 892
958 597
649 303
493 611
916 613
510 686
965 988
30 394
848 744
51 564
565 256
212 498
433 650
818 737
290 6
777 261
579 393
971 441
462 465
245 771
800 745
591 3
162 39
975 868
839 153
179 636
768 464
